c File: instances/16_0.40_2.col
c
c Description: Random graph of size 16 vertices and P(0.39999999999999997) of edges between any two vertices.
p col 16 120
e 1 3
e 1 6
e 1 13
e 1 15
e 2 9
e 2 12
e 2 16
e 3 9
e 3 10
e 3 11
e 3 13
e 4 8
e 4 9
e 4 10
e 4 11
e 4 12
e 5 10
e 5 11
e 5 13
e 6 8
e 6 9
e 6 12
e 6 13
e 6 14
e 6 15
e 6 16
e 7 11
e 7 15
e 7 16
e 8 10
e 8 12
e 8 13
e 9 11
e 9 12
e 10 13
e 11 12
e 11 14
e 15 16